Route #1: 35 34 26 4 12
Route #2: 27 41 43 11 3 28 6 2
Route #3: 14 33 44 24 21 39
Route #4: 31 29 36 19 5 32
Route #5: 9 22 30 37 1 42 8
Route #6: 13 38 17 23 25 15 10
Route #7: 18 7 16 20 40
Cost 1146
Time 0.082035
